<number of tasks>
50

<cycle time>
1000

<order strength>
0.197


<task times>
1 68
2 233
3 119
4 238
5 112
6 216
7 250
8 153
9 142
10 38
11 86
12 55
13 86
14 46
15 111
16 107
17 81
18 198
19 303
20 186
21 182
22 117
23 147
24 198
25 105
26 224
27 62
28 72
29 206
30 124
31 82
32 67
33 121
34 64
35 169
36 170
37 164
38 82
39 48
40 231
41 249
42 176
43 143
44 158
45 211
46 33
47 105
48 55
49 33
50 77

<precedence relations>
1,32
2,8
2,11
3,9
3,13
4,10
4,12
5,14
8,17
9,16
10,18
10,30
12,15
13,19
15,32
16,22
17,23
18,24
19,20
19,21
19,25
20,32
21,32
22,27
23,28
24,29
25,26
25,30
25,31
26,32
27,35
28,33
29,34
30,36
32,37
32,38
32,39
32,40
33,41
34,42
36,43
37,46
38,48
38,49
38,50
40,47
41,45
42,44

<end>
